\ENCODING=ISO-8859-1
\Problem name: ILOG.CPLEX

Minimize
 obj: gamma_2_5_0 + gamma_2_5_1 + gamma_2_5_2 + gamma_2_4_0 + gamma_2_4_1
      + gamma_2_4_2 + gamma_2_3_0 + gamma_2_3_1 + gamma_2_3_2 + gamma_2_2_0
      + gamma_2_2_1 + gamma_2_2_2 + gamma_2_1_0 + gamma_2_1_1 + gamma_2_1_2
      + gamma_2_0_0 + gamma_2_0_1 + gamma_2_0_2 + gamma_4_5_0 + gamma_4_5_1
      + gamma_4_5_2 + gamma_4_4_0 + gamma_4_4_1 + gamma_4_4_2 + gamma_4_3_0
      + gamma_4_3_1 + gamma_4_3_2 + gamma_4_2_0 + gamma_4_2_1 + gamma_4_2_2
      + gamma_4_1_0 + gamma_4_1_1 + gamma_4_1_2 + gamma_4_0_0 + gamma_4_0_1
      + gamma_4_0_2 + gamma_1_1_0 + gamma_1_1_1 + gamma_1_0_0 + gamma_1_0_1
      + gamma_0_1_0 + gamma_0_1_1 + gamma_0_0_0 + gamma_0_0_1 + gamma_3_5_0
      + gamma_3_5_1 + gamma_3_5_2 + gamma_3_4_0 + gamma_3_4_1 + gamma_3_4_2
      + gamma_3_3_0 + gamma_3_3_1 + gamma_3_3_2 + gamma_3_2_0 + gamma_3_2_1
      + gamma_3_2_2 + gamma_3_1_0 + gamma_3_1_1 + gamma_3_1_2 + gamma_3_0_0
      + gamma_3_0_1 + gamma_3_0_2
Subject To
 C1_0#0:             s_2_5 + s_2_4 + s_2_3 + s_2_2 + s_2_1 + s_2_0  = 1
 C1_1#1:             s_4_5 + s_4_4 + s_4_3 + s_4_2 + s_4_1 + s_4_0  = 1
 C1_2#2:             s_1_1 + s_1_0  = 1
 C1_3#3:             s_0_1 + s_0_0  = 1
 C1_4#4:             s_3_5 + s_3_4 + s_3_3 + s_3_2 + s_3_1 + s_3_0  = 1
 _2_0_0_0_0#5:       6.751 gamma_2_5_0 - 6.751 s_2_5 - 3 g_0 - 3 g_1 - 0.75 g_2
                     >= -6.75
 _2_0_0_0_2#6:       9.001 gamma_2_5_0 - 9.001 s_2_5 - 4 g_0 - 1.5 g_1
                     - 2.25 g_2 - g_3 - 0.25 g_4 >= -9
 _2_0_0_0_4#7:       10.6676666666667 gamma_2_5_0 - 10.6676666666667 s_2_5
                     - 4 g_0 - 0.666666666666667 g_1 - 3.5 g_2 - 2 g_3
                     - 0.5 g_4 >= -10.6666666666667
 _2_0_0_0_7#8:       5.08433333333333 gamma_2_5_0 - 5.08433333333333 s_2_5
                     - g_0 + 0.333333333333333 g_1 - 1.25 g_2 - 2 g_3 - 0.5 g_4
                     >= -5.08333333333333
 _2_0_0_1_0#9:       5.83433333333333 gamma_2_5_1 - 5.83433333333333 s_2_5
                     + g_0 - 1.5 g_1 + 2 g_2 + g_3 + 0.333333333333333 g_4
                     >= -5.83333333333333
 _2_0_0_1_3#10:      3.83433333333333 gamma_2_5_1 - 3.83433333333333 s_2_5
                     + 0.833333333333333 g_1 - 1.66666666666667 g_2 - g_3
                     - 0.333333333333333 g_4 >= -3.83333333333333
 _2_0_0_1_5#11:      7.501 gamma_2_5_1 - 7.501 s_2_5 + 3 g_0
                     + 1.83333333333333 g_1 + 1.33333333333333 g_2 - g_3
                     - 0.333333333333333 g_4 >= -7.5
 _2_0_1_0_0#12:      6.751 gamma_2_4_0 - 6.751 s_2_4 - 3 g_0 - 3 g_1 - 0.75 g_2
                     >= -6.75
 _2_0_1_0_2#13:      9.001 gamma_2_4_0 - 9.001 s_2_4 - 4 g_0 - 1.5 g_1
                     - 2.25 g_2 - g_3 - 0.25 g_4 >= -9
 _2_0_1_0_4#14:      10.6676666666667 gamma_2_4_0 - 10.6676666666667 s_2_4
                     - 4 g_0 - 0.666666666666667 g_1 - 3.5 g_2 - 2 g_3
                     - 0.5 g_4 >= -10.6666666666667
 _2_0_1_0_7#15:      5.08433333333333 gamma_2_4_0 - 5.08433333333333 s_2_4
                     - g_0 + 0.333333333333333 g_1 - 1.25 g_2 - 2 g_3 - 0.5 g_4
                     >= -5.08333333333333
 _2_0_1_1_1#16:      5.83433333333333 gamma_2_4_1 - 5.83433333333333 s_2_4
                     - g_0 + 1.5 g_1 - 2 g_2 - g_3 - 0.333333333333333 g_4
                     >= -5.83333333333333
 _2_0_1_1_3#17:      9.66766666666667 gamma_2_4_1 - 9.66766666666667 s_2_4
                     - g_0 + 2.33333333333333 g_1 - 3.66666666666667 g_2
                     - 2 g_3 - 0.666666666666667 g_4 >= -9.66666666666667
 _2_0_1_1_5#18:      8.66766666666667 gamma_2_4_1 - 8.66766666666667 s_2_4
                     + 2 g_0 + 3.33333333333333 g_1 - 0.666666666666667 g_2
                     - 2 g_3 - 0.666666666666667 g_4 >= -8.66666666666667
 _2_0_2_0_0#19:      5.251 gamma_2_3_0 - 5.251 s_2_3 + g_0 - 1.5 g_1 + 1.5 g_2
                     + g_3 + 0.25 g_4 >= -5.25
 _2_0_2_0_3#20:      3.33433333333333 gamma_2_3_0 - 3.33433333333333 s_2_3
                     + 0.833333333333333 g_1 - 1.25 g_2 - g_3 - 0.25 g_4
                     >= -3.33333333333333
 _2_0_2_0_5#21:      9.001 gamma_2_3_0 - 9.001 s_2_3 + 4 g_0 + 1.5 g_1
                     + 2.25 g_2 + g_3 + 0.25 g_4 >= -9
 _2_0_2_0_7#22:      7.08433333333333 gamma_2_3_0 - 7.08433333333333 s_2_3
                     + 3 g_0 + 1.83333333333333 g_1 + g_2 - g_3 - 0.25 g_4
                     >= -7.08333333333333
 _2_0_2_1_0#23:      7.501 gamma_2_3_1 - 7.501 s_2_3 - 3 g_0 - 3 g_1 - 1.5 g_2
                     >= -7.5
 _2_0_3_0_0#24:      5.251 gamma_2_2_0 - 5.251 s_2_2 + g_0 - 1.5 g_1 + 1.5 g_2
                     + g_3 + 0.25 g_4 >= -5.25
 _2_0_3_0_3#25:      3.33433333333333 gamma_2_2_0 - 3.33433333333333 s_2_2
                     + 0.833333333333333 g_1 - 1.25 g_2 - g_3 - 0.25 g_4
                     >= -3.33333333333333
 _2_0_3_0_5#26:      9.001 gamma_2_2_0 - 9.001 s_2_2 + 4 g_0 + 1.5 g_1
                     + 2.25 g_2 + g_3 + 0.25 g_4 >= -9
 _2_0_3_0_7#27:      7.08433333333333 gamma_2_2_0 - 7.08433333333333 s_2_2
                     + 3 g_0 + 1.83333333333333 g_1 + g_2 - g_3 - 0.25 g_4
                     >= -7.08333333333333
 _2_0_3_1_1#28:      7.501 gamma_2_2_1 - 7.501 s_2_2 + 3 g_0 + 3 g_1 + 1.5 g_2
                     >= -7.5
 _2_0_4_0_1#29:      5.251 gamma_2_1_0 - 5.251 s_2_1 - g_0 + 1.5 g_1 - 1.5 g_2
                     - g_3 - 0.25 g_4 >= -5.25
 _2_0_4_0_3#30:      8.58433333333333 gamma_2_1_0 - 8.58433333333333 s_2_1
                     - g_0 + 2.33333333333333 g_1 - 2.75 g_2 - 2 g_3 - 0.5 g_4
                     >= -8.58333333333333
 _2_0_4_0_5#31:      6.751 gamma_2_1_0 - 6.751 s_2_1 + 3 g_0 + 3 g_1 + 0.75 g_2
                     >= -6.75
 _2_0_4_0_7#32:      8.33433333333333 gamma_2_1_0 - 8.33433333333333 s_2_1
                     + 2 g_0 + 3.33333333333333 g_1 - 0.5 g_2 - 2 g_3 - 0.5 g_4
                     >= -8.33333333333333
 _2_0_4_1_0#33:      9.83433333333334 gamma_2_1_1 - 9.83433333333334 s_2_1
                     - 4 g_0 - 1.5 g_1 - 3 g_2 - g_3 - 0.333333333333333 g_4
                     >= -9.83333333333334
 _2_0_4_1_2#34:      12.001 gamma_2_1_1 - 12.001 s_2_1 - 4 g_0
                     - 0.666666666666667 g_1 - 4.66666666666667 g_2 - 2 g_3
                     - 0.666666666666667 g_4 >= -12
 _2_0_4_1_5#35:      5.66766666666667 gamma_2_1_1 - 5.66766666666667 s_2_1
                     - g_0 + 0.333333333333333 g_1 - 1.66666666666667 g_2
                     - 2 g_3 - 0.666666666666667 g_4 >= -5.66666666666667
 _2_0_5_0_1#36:      5.251 gamma_2_0_0 - 5.251 s_2_0 - g_0 + 1.5 g_1 - 1.5 g_2
                     - g_3 - 0.25 g_4 >= -5.25
 _2_0_5_0_3#37:      8.58433333333333 gamma_2_0_0 - 8.58433333333333 s_2_0
                     - g_0 + 2.33333333333333 g_1 - 2.75 g_2 - 2 g_3 - 0.5 g_4
                     >= -8.58333333333333
 _2_0_5_0_5#38:      6.751 gamma_2_0_0 - 6.751 s_2_0 + 3 g_0 + 3 g_1 + 0.75 g_2
                     >= -6.75
 _2_0_5_0_7#39:      8.33433333333333 gamma_2_0_0 - 8.33433333333333 s_2_0
                     + 2 g_0 + 3.33333333333333 g_1 - 0.5 g_2 - 2 g_3 - 0.5 g_4
                     >= -8.33333333333333
 _2_0_5_1_1#40:      3.83433333333333 gamma_2_0_1 - 3.83433333333333 s_2_0
                     + 0.833333333333333 g_1 - 1.66666666666667 g_2 - g_3
                     - 0.333333333333333 g_4 >= -3.83333333333333
 _2_0_5_1_3#41:      9.83433333333334 gamma_2_0_1 - 9.83433333333334 s_2_0
                     + 4 g_0 + 1.5 g_1 + 3 g_2 + g_3 + 0.333333333333333 g_4
                     >= -9.83333333333334
 _2_0_5_1_5#42:      7.501 gamma_2_0_1 - 7.501 s_2_0 + 3 g_0
                     + 1.83333333333333 g_1 + 1.33333333333333 g_2 - g_3
                     - 0.333333333333333 g_4 >= -7.5
 _2_1_0_0_0#43:      6.601 gamma_4_5_0 - 6.601 s_4_5 - 3 g_0 - 3 g_1 - 0.6 g_2
                     >= -6.6
 _2_1_0_0_2#44:      11.801 gamma_4_5_0 - 11.801 s_4_5 - 5 g_0 - g_1 - 3.4 g_2
                     - 2 g_3 - 0.4 g_4 >= -11.8
 _2_1_0_0_4#45:      11.801 gamma_4_5_0 - 11.801 s_4_5 - 5 g_0 - g_1 - 3.4 g_2
                     - 2 g_3 - 0.4 g_4 >= -11.8
 _2_1_0_0_6#46:      7.93433333333333 gamma_4_5_0 - 7.93433333333333 s_4_5
                     - 3 g_0 - 0.333333333333333 g_1 - 2.2 g_2 - 2 g_3
                     - 0.4 g_4 >= -7.93333333333333
 _2_1_0_0_8#47:      0.001 gamma_4_5_0 - 0.001 s_4_5 >= 0
 _2_1_0_0_11#48:     1.901 gamma_4_5_0 - 1.901 s_4_5 + 0.5 g_1 - 0.2 g_2 - g_3
                     - 0.2 g_4 >= -1.9
 _2_1_0_1_0#49:      10.001 gamma_4_5_1 - 10.001 s_4_5 + 2 g_0 - 2 g_1
                     + 3.5 g_2 + 2 g_3 + 0.5 g_4 >= -10
 _2_1_0_1_3#50:      0.001 gamma_4_5_1 - 0.001 s_4_5 >= 0
 _2_1_0_1_5#51:      4.16766666666667 gamma_4_5_1 - 4.16766666666667 s_4_5
                     + 2 g_0 + 0.666666666666667 g_1 + 1.5 g_2
                     >= -4.16666666666667
 _2_1_0_1_7#52:      12.751 gamma_4_5_1 - 12.751 s_4_5 + 5 g_0 + g_1 + 4.25 g_2
                     + 2 g_3 + 0.5 g_4 >= -12.75
 _2_1_0_1_9#53:      11.751 gamma_4_5_1 - 11.751 s_4_5 + 5 g_0 + 1.5 g_1
                     + 4 g_2 + g_3 + 0.25 g_4 >= -11.75
 _2_1_0_2_1#54:      9.001 gamma_4_5_2 - 9.001 s_4_5 + 3 g_0 + 3 g_1 + 3 g_2
                     >= -9
 _2_1_1_0_0#55:      6.601 gamma_4_4_0 - 6.601 s_4_4 - 3 g_0 - 3 g_1 - 0.6 g_2
                     >= -6.6
 _2_1_1_0_2#56:      11.801 gamma_4_4_0 - 11.801 s_4_4 - 5 g_0 - g_1 - 3.4 g_2
                     - 2 g_3 - 0.4 g_4 >= -11.8
 _2_1_1_0_4#57:      11.801 gamma_4_4_0 - 11.801 s_4_4 - 5 g_0 - g_1 - 3.4 g_2
                     - 2 g_3 - 0.4 g_4 >= -11.8
 _2_1_1_0_6#58:      7.93433333333333 gamma_4_4_0 - 7.93433333333333 s_4_4
                     - 3 g_0 - 0.333333333333333 g_1 - 2.2 g_2 - 2 g_3
                     - 0.4 g_4 >= -7.93333333333333
 _2_1_1_0_8#59:      0.001 gamma_4_4_0 - 0.001 s_4_4 >= 0
 _2_1_1_0_11#60:     1.901 gamma_4_4_0 - 1.901 s_4_4 + 0.5 g_1 - 0.2 g_2 - g_3
                     - 0.2 g_4 >= -1.9
 _2_1_1_1_1#61:      10.001 gamma_4_4_1 - 10.001 s_4_4 - 2 g_0 + 2 g_1
                     - 3.5 g_2 - 2 g_3 - 0.5 g_4 >= -10
 _2_1_1_1_3#62:      10.001 gamma_4_4_1 - 10.001 s_4_4 - 2 g_0 + 2 g_1
                     - 3.5 g_2 - 2 g_3 - 0.5 g_4 >= -10
 _2_1_1_1_5#63:      7.16766666666667 gamma_4_4_1 - 7.16766666666667 s_4_4
                     + 2.66666666666667 g_1 - 2 g_2 - 2 g_3 - 0.5 g_4
                     >= -7.16666666666667
 _2_1_1_1_7#64:      6.751 gamma_4_4_1 - 6.751 s_4_4 + 3 g_0 + 3 g_1 + 0.75 g_2
                     >= -6.75
 _2_1_1_1_9#65:      8.251 gamma_4_4_1 - 8.251 s_4_4 + 3 g_0 + 3.5 g_1
                     + 0.5 g_2 - g_3 - 0.25 g_4 >= -8.25
 _2_1_1_2_1#66:      0.001 gamma_4_4_2 - 0.001 s_4_4 >= 0
 _2_1_1_2_3#67:      4.66766666666667 gamma_4_4_2 - 4.66766666666667 s_4_4
                     + 2 g_0 + 0.666666666666667 g_1 + 2 g_2
                     >= -4.66666666666667
 _2_1_1_2_5#68:      14.3343333333333 gamma_4_4_2 - 14.3343333333333 s_4_4
                     + 5 g_0 + g_1 + 5.66666666666667 g_2 + 2 g_3
                     + 0.666666666666667 g_4 >= -14.3333333333333
 _2_1_1_2_7#69:      13.1676666666667 gamma_4_4_2 - 13.1676666666667 s_4_4
                     + 5 g_0 + 1.5 g_1 + 5.33333333333333 g_2 + g_3
                     + 0.333333333333333 g_4 >= -13.1666666666667
 _2_1_2_0_0#70:      9.201 gamma_4_3_0 - 9.201 s_4_3 + 2 g_0 - 2 g_1 + 2.8 g_2
                     + 2 g_3 + 0.4 g_4 >= -9.2
 _2_1_2_0_3#71:      0.001 gamma_4_3_0 - 0.001 s_4_3 >= 0
 _2_1_2_0_5#72:      3.86766666666667 gamma_4_3_0 - 3.86766666666667 s_4_3
                     + 2 g_0 + 0.666666666666667 g_1 + 1.2 g_2
                     >= -3.86666666666667
 _2_1_2_0_7#73:      11.801 gamma_4_3_0 - 11.801 s_4_3 + 5 g_0 + g_1 + 3.4 g_2
                     + 2 g_3 + 0.4 g_4 >= -11.8
 _2_1_2_0_9#74:      11.801 gamma_4_3_0 - 11.801 s_4_3 + 5 g_0 + g_1 + 3.4 g_2
                     + 2 g_3 + 0.4 g_4 >= -11.8
 _2_1_2_0_11#75:     10.901 gamma_4_3_0 - 10.901 s_4_3 + 5 g_0 + 1.5 g_1
                     + 3.2 g_2 + g_3 + 0.2 g_4 >= -10.9
 _2_1_2_1_0#76:      7.501 gamma_4_3_1 - 7.501 s_4_3 - 3 g_0 - 3 g_1 - 1.5 g_2
                     >= -7.5
 _2_1_2_1_2#77:      0.001 gamma_4_3_1 - 0.001 s_4_3 >= 0
 _2_1_2_1_5#78:      2.501 gamma_4_3_1 - 2.501 s_4_3 + 0.5 g_1 - 0.5 g_2 - g_3
                     - 0.5 g_4 >= -2.5
 _2_1_2_2_1#79:      9.001 gamma_4_3_2 - 9.001 s_4_3 + 3 g_0 + 3 g_1 + 3 g_2
                     >= -9
 _2_1_3_0_0#80:      9.201 gamma_4_2_0 - 9.201 s_4_2 + 2 g_0 - 2 g_1 + 2.8 g_2
                     + 2 g_3 + 0.4 g_4 >= -9.2
 _2_1_3_0_3#81:      0.001 gamma_4_2_0 - 0.001 s_4_2 >= 0
 _2_1_3_0_5#82:      3.86766666666667 gamma_4_2_0 - 3.86766666666667 s_4_2
                     + 2 g_0 + 0.666666666666667 g_1 + 1.2 g_2
                     >= -3.86666666666667
 _2_1_3_0_7#83:      11.801 gamma_4_2_0 - 11.801 s_4_2 + 5 g_0 + g_1 + 3.4 g_2
                     + 2 g_3 + 0.4 g_4 >= -11.8
 _2_1_3_0_9#84:      11.801 gamma_4_2_0 - 11.801 s_4_2 + 5 g_0 + g_1 + 3.4 g_2
                     + 2 g_3 + 0.4 g_4 >= -11.8
 _2_1_3_0_11#85:     10.901 gamma_4_2_0 - 10.901 s_4_2 + 5 g_0 + 1.5 g_1
                     + 3.2 g_2 + g_3 + 0.2 g_4 >= -10.9
 _2_1_3_1_1#86:      7.501 gamma_4_2_1 - 7.501 s_4_2 + 3 g_0 + 3 g_1 + 1.5 g_2
                     >= -7.5
 _2_1_3_1_3#87:      7.501 gamma_4_2_1 - 7.501 s_4_2 + 3 g_0 + 3 g_1 + 1.5 g_2
                     >= -7.5
 _2_1_3_1_5#88:      9.001 gamma_4_2_1 - 9.001 s_4_2 + 3 g_0 + 3.5 g_1 + g_2
                     - g_3 - 0.5 g_4 >= -9
 _2_1_3_2_0#89:      0.001 gamma_4_2_2 - 0.001 s_4_2 >= 0
 _2_1_4_0_1#90:      9.201 gamma_4_1_0 - 9.201 s_4_1 - 2 g_0 + 2 g_1 - 2.8 g_2
                     - 2 g_3 - 0.4 g_4 >= -9.2
 _2_1_4_0_3#91:      9.201 gamma_4_1_0 - 9.201 s_4_1 - 2 g_0 + 2 g_1 - 2.8 g_2
                     - 2 g_3 - 0.4 g_4 >= -9.2
 _2_1_4_0_5#92:      6.66766666666667 gamma_4_1_0 - 6.66766666666667 s_4_1
                     + 2.66666666666667 g_1 - 1.6 g_2 - 2 g_3 - 0.4 g_4
                     >= -6.66666666666667
 _2_1_4_0_7#93:      6.601 gamma_4_1_0 - 6.601 s_4_1 + 3 g_0 + 3 g_1 + 0.6 g_2
                     >= -6.6
 _2_1_4_0_9#94:      6.601 gamma_4_1_0 - 6.601 s_4_1 + 3 g_0 + 3 g_1 + 0.6 g_2
                     >= -6.6
 _2_1_4_0_11#95:     8.101 gamma_4_1_0 - 8.101 s_4_1 + 3 g_0 + 3.5 g_1
                     + 0.4 g_2 - g_3 - 0.2 g_4 >= -8.1
 _2_1_4_1_0#96:      12.751 gamma_4_1_1 - 12.751 s_4_1 - 5 g_0 - g_1 - 4.25 g_2
                     - 2 g_3 - 0.5 g_4 >= -12.75
 _2_1_4_1_2#97:      12.751 gamma_4_1_1 - 12.751 s_4_1 - 5 g_0 - g_1 - 4.25 g_2
                     - 2 g_3 - 0.5 g_4 >= -12.75
 _2_1_4_1_4#98:      8.58433333333333 gamma_4_1_1 - 8.58433333333333 s_4_1
                     - 3 g_0 - 0.333333333333333 g_1 - 2.75 g_2 - 2 g_3
                     - 0.5 g_4 >= -8.58333333333333
 _2_1_4_1_6#99:      0.001 gamma_4_1_1 - 0.001 s_4_1 >= 0
 _2_1_4_1_9#100:     2.001 gamma_4_1_1 - 2.001 s_4_1 + 0.5 g_1 - 0.25 g_2 - g_3
                     - 0.25 g_4 >= -2
 _2_1_4_2_1#101:     0.001 gamma_4_1_2 - 0.001 s_4_1 >= 0
 _2_1_4_2_3#102:     4.66766666666667 gamma_4_1_2 - 4.66766666666667 s_4_1
                     + 2 g_0 + 0.666666666666667 g_1 + 2 g_2
                     >= -4.66666666666667
 _2_1_4_2_5#103:     14.3343333333333 gamma_4_1_2 - 14.3343333333333 s_4_1
                     + 5 g_0 + g_1 + 5.66666666666667 g_2 + 2 g_3
                     + 0.666666666666667 g_4 >= -14.3333333333333
 _2_1_4_2_7#104:     13.1676666666667 gamma_4_1_2 - 13.1676666666667 s_4_1
                     + 5 g_0 + 1.5 g_1 + 5.33333333333333 g_2 + g_3
                     + 0.333333333333333 g_4 >= -13.1666666666667
 _2_1_5_0_1#105:     9.201 gamma_4_0_0 - 9.201 s_4_0 - 2 g_0 + 2 g_1 - 2.8 g_2
                     - 2 g_3 - 0.4 g_4 >= -9.2
 _2_1_5_0_3#106:     9.201 gamma_4_0_0 - 9.201 s_4_0 - 2 g_0 + 2 g_1 - 2.8 g_2
                     - 2 g_3 - 0.4 g_4 >= -9.2
 _2_1_5_0_5#107:     6.66766666666667 gamma_4_0_0 - 6.66766666666667 s_4_0
                     + 2.66666666666667 g_1 - 1.6 g_2 - 2 g_3 - 0.4 g_4
                     >= -6.66666666666667
 _2_1_5_0_7#108:     6.601 gamma_4_0_0 - 6.601 s_4_0 + 3 g_0 + 3 g_1 + 0.6 g_2
                     >= -6.6
 _2_1_5_0_9#109:     6.601 gamma_4_0_0 - 6.601 s_4_0 + 3 g_0 + 3 g_1 + 0.6 g_2
                     >= -6.6
 _2_1_5_0_11#110:    8.101 gamma_4_0_0 - 8.101 s_4_0 + 3 g_0 + 3.5 g_1
                     + 0.4 g_2 - g_3 - 0.2 g_4 >= -8.1
 _2_1_5_1_1#111:     0.001 gamma_4_0_1 - 0.001 s_4_0 >= 0
 _2_1_5_1_3#112:     4.16766666666667 gamma_4_0_1 - 4.16766666666667 s_4_0
                     + 2 g_0 + 0.666666666666667 g_1 + 1.5 g_2
                     >= -4.16666666666667
 _2_1_5_1_5#113:     12.751 gamma_4_0_1 - 12.751 s_4_0 + 5 g_0 + g_1 + 4.25 g_2
                     + 2 g_3 + 0.5 g_4 >= -12.75
 _2_1_5_1_7#114:     12.751 gamma_4_0_1 - 12.751 s_4_0 + 5 g_0 + g_1 + 4.25 g_2
                     + 2 g_3 + 0.5 g_4 >= -12.75
 _2_1_5_1_9#115:     11.751 gamma_4_0_1 - 11.751 s_4_0 + 5 g_0 + 1.5 g_1
                     + 4 g_2 + g_3 + 0.25 g_4 >= -11.75
 _2_1_5_2_0#116:     0.001 gamma_4_0_2 - 0.001 s_4_0 >= 0
 _2_2_0_0_0#117:     517.834333333333 gamma_1_1_0 - 517.834333333333 s_1_1
                     - 300 g_0 - g_1 - 116.666666666667 g_2 - 100 g_3
                     - 0.166666666666667 g_4 >= -517.833333333333
 _2_2_0_0_2#118:     1751.26766666667 gamma_1_1_0 - 1751.26766666667 s_1_1
                     - 700 g_0 - 0.6 g_1 - 650 g_2 - 400 g_3
                     - 0.666666666666667 g_4 >= -1751.26666666667
 _2_2_0_0_5#119:     0.001 gamma_1_1_0 - 0.001 s_1_1 >= 0
 _2_2_0_0_7#120:     1200.66766666667 gamma_1_1_0 - 1200.66766666667 s_1_1
                     - 400 g_0 - 400 g_2 - 400 g_3 - 0.666666666666667 g_4
                     >= -1200.66666666667
 _2_2_0_0_9#121:     1017.53433333333 gamma_1_1_0 - 1017.53433333333 s_1_1
                     - 300 g_0 + 0.2 g_1 - 316.666666666667 g_2 - 400 g_3
                     - 0.666666666666667 g_4 >= -1017.53333333333
 _2_2_0_0_11#122:    651.267666666667 gamma_1_1_0 - 651.267666666667 s_1_1
                     - 100 g_0 + 0.6 g_1 - 150 g_2 - 400 g_3
                     - 0.666666666666667 g_4 >= -651.266666666667
 _2_2_0_1_0#123:     1341.001 gamma_1_1_1 - 1341.001 s_1_1 + 400 g_0 - 0.4 g_1
                     + 640 g_2 + 300 g_3 + 0.6 g_4 >= -1341
 _2_2_0_1_3#124:     1881.401 gamma_1_1_1 - 1881.401 s_1_1 + 700 g_0 + 0.6 g_1
                     + 780 g_2 + 400 g_3 + 0.8 g_4 >= -1881.4
 _2_2_0_1_5#125:     600.601 gamma_1_1_1 - 600.601 s_1_1 + 300 g_0 + 0.6 g_1
                     + 300 g_2 >= -600.6
 _2_2_0_1_7#126:     800.801 gamma_1_1_1 - 800.801 s_1_1 + 400 g_0 + 0.8 g_1
                     + 400 g_2 >= -800.8
 _2_2_0_1_9#127:     1201.201 gamma_1_1_1 - 1201.201 s_1_1 + 600 g_0 + 1.2 g_1
                     + 600 g_2 >= -1201.2
 _2_2_1_0_0#128:     1234.23433333333 gamma_1_0_0 - 1234.23433333333 s_1_0
                     + 400 g_0 - 0.4 g_1 + 533.333333333333 g_2 + 300 g_3
                     + 0.5 g_4 >= -1234.23333333333
 _2_2_1_0_3#129:     1751.26766666667 gamma_1_0_0 - 1751.26766666667 s_1_0
                     + 700 g_0 + 0.6 g_1 + 650 g_2 + 400 g_3
                     + 0.666666666666667 g_4 >= -1751.26666666667
 _2_2_1_0_5#130:     1751.26766666667 gamma_1_0_0 - 1751.26766666667 s_1_0
                     + 700 g_0 + 0.6 g_1 + 650 g_2 + 400 g_3
                     + 0.666666666666667 g_4 >= -1751.26666666667
 _2_2_1_0_7#131:     550.601 gamma_1_0_0 - 550.601 s_1_0 + 300 g_0 + 0.6 g_1
                     + 250 g_2 >= -550.6
 _2_2_1_0_9#132:     734.134333333333 gamma_1_0_0 - 734.134333333333 s_1_0
                     + 400 g_0 + 0.8 g_1 + 333.333333333333 g_2
                     >= -734.133333333333
 _2_2_1_0_11#133:    1101.201 gamma_1_0_0 - 1101.201 s_1_0 + 600 g_0 + 1.2 g_1
                     + 500 g_2 >= -1101.2
 _2_2_1_1_1#134:     0.001 gamma_1_0_1 - 0.001 s_1_0 >= 0
 _2_3_0_0_0#135:     5.13433333333333 gamma_0_1_0 - 5.13433333333333 s_0_1
                     - 2 g_0 - 0.333333333333333 g_1 - 1.6 g_2 - g_3 - 0.2 g_4
                     >= -5.13333333333333
 _2_3_0_0_3#136:     10.801 gamma_0_1_0 - 10.801 s_0_1 - 3 g_0 - 4.2 g_2
                     - 3 g_3 - 0.6 g_4 >= -10.8
 _2_3_0_0_5#137:     1.93433333333333 gamma_0_1_0 - 1.93433333333333 s_0_1
                     + 0.333333333333333 g_1 - 0.4 g_2 - g_3 - 0.2 g_4
                     >= -1.93333333333333
 _2_3_0_1_1#138:     4.66766666666667 gamma_0_1_1 - 4.66766666666667 s_0_1
                     + 2 g_0 + 0.666666666666667 g_1 + 2 g_2
                     >= -4.66666666666667
 _2_3_1_0_1#139:     5.13433333333333 gamma_0_0_0 - 5.13433333333333 s_0_0
                     + 2 g_0 + 0.333333333333333 g_1 + 1.6 g_2 + g_3 + 0.2 g_4
                     >= -5.13333333333333
 _2_3_1_0_3#140:     6.33433333333333 gamma_0_0_0 - 6.33433333333333 s_0_0
                     - g_0 + 0.333333333333333 g_1 - 2.6 g_2 - 2 g_3 - 0.4 g_4
                     >= -6.33333333333333
 _2_3_1_0_5#141:     3.86766666666667 gamma_0_0_0 - 3.86766666666667 s_0_0
                     + 2 g_0 + 0.666666666666667 g_1 + 1.2 g_2
                     >= -3.86666666666667
 _2_4_0_0_0#142:     3.101 gamma_3_5_0 - 3.101 s_3_5 + 0.5 g_1 - 0.4 g_2
                     - 2 g_3 - 0.2 g_4 >= -3.1
 _2_4_0_0_2#143:     13.501 gamma_3_5_0 - 13.501 s_3_5 - 6 g_0 - 0.6 g_1
                     - 3.6 g_2 - 3 g_3 - 0.3 g_4 >= -13.5
 _2_4_0_0_4#144:     4.251 gamma_3_5_0 - 4.251 s_3_5 - g_0 + 0.25 g_1 - 0.8 g_2
                     - 2 g_3 - 0.2 g_4 >= -4.25
 _2_4_0_0_6#145:     3.951 gamma_3_5_0 - 3.951 s_3_5 + g_0 + 0.75 g_1 - 2 g_3
                     - 0.2 g_4 >= -3.95
 _2_4_0_0_8#146:     7.501 gamma_3_5_0 - 7.501 s_3_5 - 4 g_0 - g_1 - 1.4 g_2
                     - g_3 - 0.1 g_4 >= -7.5
 _2_4_0_0_11#147:    4.251 gamma_3_5_0 - 4.251 s_3_5 - g_0 + 0.25 g_1 - 0.8 g_2
                     - 2 g_3 - 0.2 g_4 >= -4.25
 _2_4_0_1_0#148:     7.876 gamma_3_5_1 - 7.876 s_3_5 + 4 g_0 + 1.5 g_1
                     + 1.25 g_2 - g_3 - 0.125 g_4 >= -7.875
 _2_4_0_1_2#149:     7.401 gamma_3_5_1 - 7.401 s_3_5 - 2 g_0 + 0.4 g_1
                     - 2.75 g_2 - 2 g_3 - 0.25 g_4 >= -7.4
 _2_4_0_1_4#150:     6.126 gamma_3_5_1 - 6.126 s_3_5 + 3 g_0 + 1.25 g_1
                     + 0.75 g_2 - g_3 - 0.125 g_4 >= -6.125
 _2_4_0_1_6#151:     9.626 gamma_3_5_1 - 9.626 s_3_5 + 5 g_0 + 1.75 g_1
                     + 1.75 g_2 - g_3 - 0.125 g_4 >= -9.625
 _2_4_0_1_9#152:     6.126 gamma_3_5_1 - 6.126 s_3_5 + 3 g_0 + 1.25 g_1
                     + 0.75 g_2 - g_3 - 0.125 g_4 >= -6.125
 _2_4_0_2_0#153:     14.701 gamma_3_5_2 - 14.701 s_3_5 + 6 g_0 + 1.1 g_1
                     + 6.4 g_2 + g_3 + 0.2 g_4 >= -14.7
 _2_4_0_2_3#154:     12.651 gamma_3_5_2 - 12.651 s_3_5 + 5 g_0 + 0.85 g_1
                     + 5.6 g_2 + g_3 + 0.2 g_4 >= -12.65
 _2_4_0_2_5#155:     16.751 gamma_3_5_2 - 16.751 s_3_5 + 7 g_0 + 1.35 g_1
                     + 7.2 g_2 + g_3 + 0.2 g_4 >= -16.75
 _2_4_0_2_7#156:     12.651 gamma_3_5_2 - 12.651 s_3_5 + 5 g_0 + 0.85 g_1
                     + 5.6 g_2 + g_3 + 0.2 g_4 >= -12.65
 _2_4_1_0_0#157:     3.101 gamma_3_4_0 - 3.101 s_3_4 + 0.5 g_1 - 0.4 g_2
                     - 2 g_3 - 0.2 g_4 >= -3.1
 _2_4_1_0_2#158:     13.501 gamma_3_4_0 - 13.501 s_3_4 - 6 g_0 - 0.6 g_1
                     - 3.6 g_2 - 3 g_3 - 0.3 g_4 >= -13.5
 _2_4_1_0_4#159:     4.251 gamma_3_4_0 - 4.251 s_3_4 - g_0 + 0.25 g_1 - 0.8 g_2
                     - 2 g_3 - 0.2 g_4 >= -4.25
 _2_4_1_0_6#160:     3.951 gamma_3_4_0 - 3.951 s_3_4 + g_0 + 0.75 g_1 - 2 g_3
                     - 0.2 g_4 >= -3.95
 _2_4_1_0_8#161:     7.501 gamma_3_4_0 - 7.501 s_3_4 - 4 g_0 - g_1 - 1.4 g_2
                     - g_3 - 0.1 g_4 >= -7.5
 _2_4_1_0_11#162:    4.251 gamma_3_4_0 - 4.251 s_3_4 - g_0 + 0.25 g_1 - 0.8 g_2
                     - 2 g_3 - 0.2 g_4 >= -4.25
 _2_4_1_1_0#163:     12.226 gamma_3_4_1 - 12.226 s_3_4 + 6 g_0 + 1.1 g_1
                     + 4 g_2 + g_3 + 0.125 g_4 >= -12.225
 _2_4_1_1_3#164:     10.476 gamma_3_4_1 - 10.476 s_3_4 + 5 g_0 + 0.85 g_1
                     + 3.5 g_2 + g_3 + 0.125 g_4 >= -10.475
 _2_4_1_1_5#165:     13.976 gamma_3_4_1 - 13.976 s_3_4 + 7 g_0 + 1.35 g_1
                     + 4.5 g_2 + g_3 + 0.125 g_4 >= -13.975
 _2_4_1_1_7#166:     7.401 gamma_3_4_1 - 7.401 s_3_4 + 2 g_0 - 0.4 g_1
                     + 2.75 g_2 + 2 g_3 + 0.25 g_4 >= -7.4
 _2_4_1_1_9#167:     10.476 gamma_3_4_1 - 10.476 s_3_4 + 5 g_0 + 0.85 g_1
                     + 3.5 g_2 + g_3 + 0.125 g_4 >= -10.475
 _2_4_2_0_0#168:     7.601 gamma_3_3_0 - 7.601 s_3_3 + 4 g_0 + 1.5 g_1 + g_2
                     - g_3 - 0.1 g_4 >= -7.6
 _2_4_2_0_2#169:     6.801 gamma_3_3_0 - 6.801 s_3_3 - 2 g_0 + 0.4 g_1
                     - 2.2 g_2 - 2 g_3 - 0.2 g_4 >= -6.8
 _2_4_2_0_4#170:     5.951 gamma_3_3_0 - 5.951 s_3_3 + 3 g_0 + 1.25 g_1
                     + 0.6 g_2 - g_3 - 0.1 g_4 >= -5.95
 _2_4_2_0_6#171:     9.251 gamma_3_3_0 - 9.251 s_3_3 + 5 g_0 + 1.75 g_1
                     + 1.4 g_2 - g_3 - 0.1 g_4 >= -9.25
 _2_4_2_0_9#172:     7.501 gamma_3_3_0 - 7.501 s_3_3 + 4 g_0 + g_1 + 1.4 g_2
                     + g_3 + 0.1 g_4 >= -7.5
 _2_4_2_0_11#173:    5.951 gamma_3_3_0 - 5.951 s_3_3 + 3 g_0 + 1.25 g_1
                     + 0.6 g_2 - g_3 - 0.1 g_4 >= -5.95
 _2_4_2_1_0#174:     3.35814285714286 gamma_3_3_1 - 3.35814285714286 s_3_3
                     + 0.5 g_1 - 0.571428571428571 g_2 - 2 g_3
                     - 0.285714285714286 g_4 >= -3.35714285714286
 _2_4_2_1_2#175:     15.1724285714286 gamma_3_3_1 - 15.1724285714286 s_3_3
                     - 6 g_0 - 0.6 g_1 - 5.14285714285714 g_2 - 3 g_3
                     - 0.428571428571429 g_4 >= -15.1714285714286
 _2_4_2_1_4#176:     4.67957142857143 gamma_3_3_1 - 4.67957142857143 s_3_3
                     - g_0 + 0.25 g_1 - 1.14285714285714 g_2 - 2 g_3
                     - 0.285714285714286 g_4 >= -4.67857142857143
 _2_4_2_1_6#177:     4.03671428571429 gamma_3_3_1 - 4.03671428571429 s_3_3
                     + g_0 + 0.75 g_1 - 2 g_3 - 0.285714285714286 g_4
                     >= -4.03571428571429
 _2_4_2_1_9#178:     4.67957142857143 gamma_3_3_1 - 4.67957142857143 s_3_3
                     - g_0 + 0.25 g_1 - 1.14285714285714 g_2 - 2 g_3
                     - 0.285714285714286 g_4 >= -4.67857142857143
 _2_4_2_2_0#179:     14.701 gamma_3_3_2 - 14.701 s_3_3 + 6 g_0 + 1.1 g_1
                     + 6.4 g_2 + g_3 + 0.2 g_4 >= -14.7
 _2_4_2_2_3#180:     12.651 gamma_3_3_2 - 12.651 s_3_3 + 5 g_0 + 0.85 g_1
                     + 5.6 g_2 + g_3 + 0.2 g_4 >= -12.65
 _2_4_2_2_5#181:     16.751 gamma_3_3_2 - 16.751 s_3_3 + 7 g_0 + 1.35 g_1
                     + 7.2 g_2 + g_3 + 0.2 g_4 >= -16.75
 _2_4_2_2_7#182:     12.651 gamma_3_3_2 - 12.651 s_3_3 + 5 g_0 + 0.85 g_1
                     + 5.6 g_2 + g_3 + 0.2 g_4 >= -12.65
 _2_4_3_0_0#183:     7.601 gamma_3_2_0 - 7.601 s_3_2 + 4 g_0 + 1.5 g_1 + g_2
                     - g_3 - 0.1 g_4 >= -7.6
 _2_4_3_0_2#184:     6.801 gamma_3_2_0 - 6.801 s_3_2 - 2 g_0 + 0.4 g_1
                     - 2.2 g_2 - 2 g_3 - 0.2 g_4 >= -6.8
 _2_4_3_0_4#185:     5.951 gamma_3_2_0 - 5.951 s_3_2 + 3 g_0 + 1.25 g_1
                     + 0.6 g_2 - g_3 - 0.1 g_4 >= -5.95
 _2_4_3_0_6#186:     9.251 gamma_3_2_0 - 9.251 s_3_2 + 5 g_0 + 1.75 g_1
                     + 1.4 g_2 - g_3 - 0.1 g_4 >= -9.25
 _2_4_3_0_9#187:     7.501 gamma_3_2_0 - 7.501 s_3_2 + 4 g_0 + g_1 + 1.4 g_2
                     + g_3 + 0.1 g_4 >= -7.5
 _2_4_3_0_11#188:    5.951 gamma_3_2_0 - 5.951 s_3_2 + 3 g_0 + 1.25 g_1
                     + 0.6 g_2 - g_3 - 0.1 g_4 >= -5.95
 _2_4_3_1_0#189:     12.8152857142857 gamma_3_2_1 - 12.8152857142857 s_3_2
                     + 6 g_0 + 1.1 g_1 + 4.57142857142857 g_2 + g_3
                     + 0.142857142857143 g_4 >= -12.8142857142857
 _2_4_3_1_3#190:     10.9938571428571 gamma_3_2_1 - 10.9938571428571 s_3_2
                     + 5 g_0 + 0.85 g_1 + 4 g_2 + g_3 + 0.142857142857143 g_4
                     >= -10.9928571428571
 _2_4_3_1_5#191:     14.6367142857143 gamma_3_2_1 - 14.6367142857143 s_3_2
                     + 7 g_0 + 1.35 g_1 + 5.14285714285714 g_2 + g_3
                     + 0.142857142857143 g_4 >= -14.6357142857143
 _2_4_3_1_7#192:     15.1724285714286 gamma_3_2_1 - 15.1724285714286 s_3_2
                     + 6 g_0 + 0.6 g_1 + 5.14285714285714 g_2 + 3 g_3
                     + 0.428571428571429 g_4 >= -15.1714285714286
 _2_4_3_1_9#193:     10.9938571428571 gamma_3_2_1 - 10.9938571428571 s_3_2
                     + 5 g_0 + 0.85 g_1 + 4 g_2 + g_3 + 0.142857142857143 g_4
                     >= -10.9928571428571
 _2_4_4_0_0#194:     11.401 gamma_3_1_0 - 11.401 s_3_1 + 6 g_0 + 1.1 g_1
                     + 3.2 g_2 + g_3 + 0.1 g_4 >= -11.4
 _2_4_4_0_3#195:     9.751 gamma_3_1_0 - 9.751 s_3_1 + 5 g_0 + 0.85 g_1
                     + 2.8 g_2 + g_3 + 0.1 g_4 >= -9.75
 _2_4_4_0_5#196:     13.051 gamma_3_1_0 - 13.051 s_3_1 + 7 g_0 + 1.35 g_1
                     + 3.6 g_2 + g_3 + 0.1 g_4 >= -13.05
 _2_4_4_0_7#197:     6.801 gamma_3_1_0 - 6.801 s_3_1 + 2 g_0 - 0.4 g_1
                     + 2.2 g_2 + 2 g_3 + 0.2 g_4 >= -6.8
 _2_4_4_0_9#198:     13.501 gamma_3_1_0 - 13.501 s_3_1 + 6 g_0 + 0.6 g_1
                     + 3.6 g_2 + 3 g_3 + 0.3 g_4 >= -13.5
 _2_4_4_0_11#199:    9.751 gamma_3_1_0 - 9.751 s_3_1 + 5 g_0 + 0.85 g_1
                     + 2.8 g_2 + g_3 + 0.1 g_4 >= -9.75
 _2_4_4_1_0#200:     3.701 gamma_3_1_1 - 3.701 s_3_1 + 0.5 g_1 - 0.8 g_2
                     - 2 g_3 - 0.4 g_4 >= -3.7
 _2_4_4_1_2#201:     5.251 gamma_3_1_1 - 5.251 s_3_1 - g_0 + 0.25 g_1 - 1.6 g_2
                     - 2 g_3 - 0.4 g_4 >= -5.25
 _2_4_4_1_4#202:     4.151 gamma_3_1_1 - 4.151 s_3_1 + g_0 + 0.75 g_1 - 2 g_3
                     - 0.4 g_4 >= -4.15
 _2_4_4_1_6#203:     9.001 gamma_3_1_1 - 9.001 s_3_1 - 4 g_0 - g_1 - 2.8 g_2
                     - g_3 - 0.2 g_4 >= -9
 _2_4_4_1_9#204:     5.251 gamma_3_1_1 - 5.251 s_3_1 - g_0 + 0.25 g_1 - 1.6 g_2
                     - 2 g_3 - 0.4 g_4 >= -5.25
 _2_4_5_0_0#205:     11.401 gamma_3_0_0 - 11.401 s_3_0 + 6 g_0 + 1.1 g_1
                     + 3.2 g_2 + g_3 + 0.1 g_4 >= -11.4
 _2_4_5_0_3#206:     9.751 gamma_3_0_0 - 9.751 s_3_0 + 5 g_0 + 0.85 g_1
                     + 2.8 g_2 + g_3 + 0.1 g_4 >= -9.75
 _2_4_5_0_5#207:     13.051 gamma_3_0_0 - 13.051 s_3_0 + 7 g_0 + 1.35 g_1
                     + 3.6 g_2 + g_3 + 0.1 g_4 >= -13.05
 _2_4_5_0_7#208:     6.801 gamma_3_0_0 - 6.801 s_3_0 + 2 g_0 - 0.4 g_1
                     + 2.2 g_2 + 2 g_3 + 0.2 g_4 >= -6.8
 _2_4_5_0_9#209:     13.501 gamma_3_0_0 - 13.501 s_3_0 + 6 g_0 + 0.6 g_1
                     + 3.6 g_2 + 3 g_3 + 0.3 g_4 >= -13.5
 _2_4_5_0_11#210:    9.751 gamma_3_0_0 - 9.751 s_3_0 + 5 g_0 + 0.85 g_1
                     + 2.8 g_2 + g_3 + 0.1 g_4 >= -9.75
 _2_4_5_1_0#211:     8.701 gamma_3_0_1 - 8.701 s_3_0 + 4 g_0 + 1.5 g_1 + 2 g_2
                     - g_3 - 0.2 g_4 >= -8.7
 _2_4_5_1_2#212:     6.651 gamma_3_0_1 - 6.651 s_3_0 + 3 g_0 + 1.25 g_1
                     + 1.2 g_2 - g_3 - 0.2 g_4 >= -6.65
 _2_4_5_1_4#213:     10.751 gamma_3_0_1 - 10.751 s_3_0 + 5 g_0 + 1.75 g_1
                     + 2.8 g_2 - g_3 - 0.2 g_4 >= -10.75
 _2_4_5_1_7#214:     9.001 gamma_3_0_1 - 9.001 s_3_0 + 4 g_0 + g_1 + 2.8 g_2
                     + g_3 + 0.2 g_4 >= -9
 _2_4_5_1_9#215:     6.651 gamma_3_0_1 - 6.651 s_3_0 + 3 g_0 + 1.25 g_1
                     + 1.2 g_2 - g_3 - 0.2 g_4 >= -6.65
 c217#216:           a_0 - g_0 >= 0
 c218#217:           a_0 + g_0 >= 0
 c219#218:           a_1 - g_1 >= 0
 c220#219:           a_1 + g_1 >= 0
 c221#220:           a_2 - g_2 >= 0
 c222#221:           a_2 + g_2 >= 0
 c223#222:           a_3 - g_3 >= 0
 c224#223:           a_3 + g_3 >= 0
 c225#224:           a_4 - g_4 >= 0
 c226#225:           a_4 + g_4 >= 0
 max_attributes#226: a_0 + a_1 + a_2 + a_3 + a_4 <= 2.0001
Bounds
 0 <= gamma_2_5_0 <= 1
 0 <= gamma_2_5_1 <= 1
 0 <= gamma_2_5_2 <= 1
 0 <= gamma_2_4_0 <= 1
 0 <= gamma_2_4_1 <= 1
 0 <= gamma_2_4_2 <= 1
 0 <= gamma_2_3_0 <= 1
 0 <= gamma_2_3_1 <= 1
 0 <= gamma_2_3_2 <= 1
 0 <= gamma_2_2_0 <= 1
 0 <= gamma_2_2_1 <= 1
 0 <= gamma_2_2_2 <= 1
 0 <= gamma_2_1_0 <= 1
 0 <= gamma_2_1_1 <= 1
 0 <= gamma_2_1_2 <= 1
 0 <= gamma_2_0_0 <= 1
 0 <= gamma_2_0_1 <= 1
 0 <= gamma_2_0_2 <= 1
 0 <= gamma_4_5_0 <= 1
 0 <= gamma_4_5_1 <= 1
 0 <= gamma_4_5_2 <= 1
 0 <= gamma_4_4_0 <= 1
 0 <= gamma_4_4_1 <= 1
 0 <= gamma_4_4_2 <= 1
 0 <= gamma_4_3_0 <= 1
 0 <= gamma_4_3_1 <= 1
 0 <= gamma_4_3_2 <= 1
 0 <= gamma_4_2_0 <= 1
 0 <= gamma_4_2_1 <= 1
 0 <= gamma_4_2_2 <= 1
 0 <= gamma_4_1_0 <= 1
 0 <= gamma_4_1_1 <= 1
 0 <= gamma_4_1_2 <= 1
 0 <= gamma_4_0_0 <= 1
 0 <= gamma_4_0_1 <= 1
 0 <= gamma_4_0_2 <= 1
 0 <= gamma_1_1_0 <= 1
 0 <= gamma_1_1_1 <= 1
 0 <= gamma_1_0_0 <= 1
 0 <= gamma_1_0_1 <= 1
 0 <= gamma_0_1_0 <= 1
 0 <= gamma_0_1_1 <= 1
 0 <= gamma_0_0_0 <= 1
 0 <= gamma_0_0_1 <= 1
 0 <= gamma_3_5_0 <= 1
 0 <= gamma_3_5_1 <= 1
 0 <= gamma_3_5_2 <= 1
 0 <= gamma_3_4_0 <= 1
 0 <= gamma_3_4_1 <= 1
 0 <= gamma_3_4_2 <= 1
 0 <= gamma_3_3_0 <= 1
 0 <= gamma_3_3_1 <= 1
 0 <= gamma_3_3_2 <= 1
 0 <= gamma_3_2_0 <= 1
 0 <= gamma_3_2_1 <= 1
 0 <= gamma_3_2_2 <= 1
 0 <= gamma_3_1_0 <= 1
 0 <= gamma_3_1_1 <= 1
 0 <= gamma_3_1_2 <= 1
 0 <= gamma_3_0_0 <= 1
 0 <= gamma_3_0_1 <= 1
 0 <= gamma_3_0_2 <= 1
 0 <= a_0 <= 1
 0 <= a_1 <= 1
 0 <= a_2 <= 1
 0 <= a_3 <= 1
 0 <= a_4 <= 1
 0 <= s_2_5 <= 1
 0 <= s_2_4 <= 1
 0 <= s_2_3 <= 1
 0 <= s_2_2 <= 1
 0 <= s_2_1 <= 1
 0 <= s_2_0 <= 1
 0 <= s_4_5 <= 1
 0 <= s_4_4 <= 1
 0 <= s_4_3 <= 1
 0 <= s_4_2 <= 1
 0 <= s_4_1 <= 1
 0 <= s_4_0 <= 1
 0 <= s_1_1 <= 1
 0 <= s_1_0 <= 1
 0 <= s_0_1 <= 1
 0 <= s_0_0 <= 1
 0 <= s_3_5 <= 1
 0 <= s_3_4 <= 1
 0 <= s_3_3 <= 1
 0 <= s_3_2 <= 1
 0 <= s_3_1 <= 1
 0 <= s_3_0 <= 1
-1 <= g_0 <= 1
-1 <= g_1 <= 1
-1 <= g_2 <= 1
-1 <= g_3 <= 1
-1 <= g_4 <= 1
Generals
 gamma_2_5_0  gamma_2_5_1  gamma_2_5_2  gamma_2_4_0  gamma_2_4_1  gamma_2_4_2 
 gamma_2_3_0  gamma_2_3_1  gamma_2_3_2  gamma_2_2_0  gamma_2_2_1  gamma_2_2_2 
 gamma_2_1_0  gamma_2_1_1  gamma_2_1_2  gamma_2_0_0  gamma_2_0_1  gamma_2_0_2 
 gamma_4_5_0  gamma_4_5_1  gamma_4_5_2  gamma_4_4_0  gamma_4_4_1  gamma_4_4_2 
 gamma_4_3_0  gamma_4_3_1  gamma_4_3_2  gamma_4_2_0  gamma_4_2_1  gamma_4_2_2 
 gamma_4_1_0  gamma_4_1_1  gamma_4_1_2  gamma_4_0_0  gamma_4_0_1  gamma_4_0_2 
 gamma_1_1_0  gamma_1_1_1  gamma_1_0_0  gamma_1_0_1  gamma_0_1_0  gamma_0_1_1 
 gamma_0_0_0  gamma_0_0_1  gamma_3_5_0  gamma_3_5_1  gamma_3_5_2  gamma_3_4_0 
 gamma_3_4_1  gamma_3_4_2  gamma_3_3_0  gamma_3_3_1  gamma_3_3_2  gamma_3_2_0 
 gamma_3_2_1  gamma_3_2_2  gamma_3_1_0  gamma_3_1_1  gamma_3_1_2  gamma_3_0_0 
 gamma_3_0_1  gamma_3_0_2  a_0  a_1  a_2  a_3  a_4  s_2_5  s_2_4  s_2_3  s_2_2 
 s_2_1  s_2_0  s_4_5  s_4_4  s_4_3  s_4_2  s_4_1  s_4_0  s_1_1  s_1_0  s_0_1 
 s_0_0  s_3_5  s_3_4  s_3_3  s_3_2  s_3_1  s_3_0 
End
